c nIsolatedPIs 18
c maxPI 14
p cnf 39 76
c gate 15 -2 -9 0
-2 -15 0
-9 -15 0
2 9 15 0
c gate 16 1 8 0
1 -16 0
8 -16 0
-1 -8 16 0
c gate 17 -15 16 0
-15 -17 0
16 -17 0
15 -16 17 0
c gate 18 3 10 0
3 -18 0
10 -18 0
-3 -10 18 0
c gate 19 2 9 0
2 -19 0
9 -19 0
-2 -9 19 0
c gate 20 -18 -19 0
-18 -20 0
-19 -20 0
18 19 20 0
c gate 21 -17 20 0
-17 -21 0
20 -21 0
17 -20 21 0
c gate 22 -4 -11 0
-4 -22 0
-11 -22 0
4 11 22 0
c gate 23 -3 -10 0
-3 -23 0
-10 -23 0
3 10 23 0
c gate 24 -22 -23 0
-22 -24 0
-23 -24 0
22 23 24 0
c gate 25 -21 24 0
-21 -25 0
24 -25 0
21 -24 25 0
c gate 26 4 11 0
4 -26 0
11 -26 0
-4 -11 26 0
c gate 27 5 12 0
5 -27 0
12 -27 0
-5 -12 27 0
c gate 28 -26 -27 0
-26 -28 0
-27 -28 0
26 27 28 0
c gate 29 -25 28 0
-25 -29 0
28 -29 0
25 -28 29 0
c gate 30 -6 -13 0
-6 -30 0
-13 -30 0
6 13 30 0
c gate 31 -5 -12 0
-5 -31 0
-12 -31 0
5 12 31 0
c gate 32 -30 -31 0
-30 -32 0
-31 -32 0
30 31 32 0
c gate 33 -29 32 0
-29 -33 0
32 -33 0
29 -32 33 0
c gate 34 7 -14 0
7 -34 0
-14 -34 0
-7 14 34 0
c gate 35 -7 14 0
-7 -35 0
14 -35 0
7 -14 35 0
c gate 36 -34 -35 0
-34 -36 0
-35 -36 0
34 35 36 0
c gate 37 6 13 0
6 -37 0
13 -37 0
-6 -13 37 0
c gate 38 -36 -37 0
-36 -38 0
-37 -38 0
36 37 38 0
c gate 39 -33 38 0
-33 -39 0
38 -39 0
33 -38 39 0
c PO
39 0
